\ This file has been generated by DOcplex
\ ENCODING=ISO-8859-1
\Problem name: random_problem.lp

Minimize
 obj: - 5 x0 + 7 x1 - 7 x2 - x3 - 7 x4 + 2 x5 - 10 x8 - 9 x9 - 3 x10 - 8 x11
      - 5 x13 - 8 x14 + x15 - 9 x16 + 6 x17 - 5 x18 + 2 x19 + 7 x20 - 10 x21
      - 9 x22 - 8 x23 + 6 x24 + 9 x25 + 10 x26 - 7 x27 - 10 x28 + 3 x29 - 7 x30
      + 7 x31 - 4 x32 + 8 x33 - 10 x34 - 2 x36 - 3 x37 + 8 x38 + 4 x39 - 3 x40
      - 6 x41 + 6 x42 - 4 x43 - 3 x44 + 2 x45 + 2 x46 - 9 x48 + 9 x49 + [
      8 x0*x1 + 20 x0*x11 + 8 x0*x13 + 8 x0*x21 - 8 x0*x22 + 10 x0*x26
      + 2 x0*x27 + 14 x0*x38 + 16 x0*x46 + 12 x0*x49 + 18 x1*x4 + 8 x1*x6
      + 4 x1*x8 + 2 x1*x13 + 16 x1*x14 - 8 x1*x24 - 2 x1*x25 + 12 x1*x42
      + 20 x1*x45 - 10 x2*x7 - 4 x2*x20 + 12 x2*x31 + 16 x2*x33 - 10 x2*x34
      - 2 x2*x37 - 14 x2*x41 - 16 x2*x42 - 10 x2*x45 - 18 x2*x47 - 6 x3*x16
      - 6 x3*x20 + 10 x3*x21 - 20 x3*x23 - 16 x3*x24 - 8 x3*x30 + 16 x3*x38
      - 2 x3*x42 - 14 x3*x43 - 4 x3*x46 - 6 x4*x9 + 2 x4*x13 - 2 x4*x17
      + 6 x4*x20 - 18 x4*x21 + 8 x4*x29 - 8 x4*x37 - 12 x4*x43 + 18 x4*x45
      - 6 x5*x8 + 4 x5*x14 - 4 x5*x23 + 8 x5*x26 - 14 x5*x27 + 20 x5*x34
      - 14 x5*x41 + 2 x5*x43 - 8 x5*x45 + 6 x5*x47 - 4 x6*x8 + 6 x6*x19
      + 8 x6*x22 + 20 x6*x25 + 18 x6*x26 - 4 x6*x28 + 14 x6*x34 + 4 x6*x35
      - 8 x6*x37 + 20 x7*x12 + 10 x7*x22 + 4 x7*x24 - 2 x7*x25 + 12 x7*x29
      + 20 x7*x32 - 20 x7*x39 + 6 x7*x42 - 6 x7*x46 + 10 x8*x9 + 16 x8*x16
      - 8 x8*x24 - 16 x8*x27 - 12 x8*x29 + 6 x8*x31 - 12 x8*x38 + 10 x9*x13
      - 18 x9*x14 - 8 x9*x17 + 16 x9*x19 - 10 x9*x28 - 2 x9*x44 + 14 x9*x47
      + 14 x9*x49 - 16 x10*x15 + 4 x10*x17 - 10 x10*x18 + 12 x10*x27
      - 18 x10*x29 + 4 x10*x31 - 20 x10*x33 - 16 x10*x36 - 8 x10*x39
      + 20 x10*x48 - 8 x11*x16 - 6 x11*x19 + 12 x11*x23 + 20 x11*x28
      - 14 x11*x33 + 10 x11*x34 - 10 x11*x38 + 12 x11*x39 - 12 x11*x47
      - 10 x12*x17 - 2 x12*x25 - 6 x12*x29 - 12 x12*x34 - 16 x12*x35 - 2 x12*x39
      - 18 x12*x40 + 18 x12*x44 + 8 x12*x49 - 8 x13*x22 - 16 x13*x23
      - 12 x13*x29 - 6 x13*x45 - 20 x13*x47 - 2 x13*x48 + 14 x14*x20
      + 16 x14*x27 + 14 x14*x30 - 10 x14*x34 - 6 x14*x37 + 8 x14*x41
      - 16 x14*x42 - 2 x15*x19 - 20 x15*x26 + 2 x15*x29 - 8 x15*x36 - 8 x15*x37
      - 6 x15*x39 + 12 x15*x43 - 20 x15*x45 - 18 x15*x49 + 18 x16*x24
      + 20 x16*x26 + 6 x16*x28 + 18 x16*x31 + 18 x16*x41 + 20 x16*x43
      + 20 x16*x44 - 4 x17*x21 + 6 x17*x27 + 12 x17*x31 + 12 x17*x40 + 2 x17*x45
      + 18 x17*x49 - 8 x18*x22 + 8 x18*x25 - 16 x18*x26 + 8 x18*x31 + 10 x18*x32
      + 14 x18*x38 - 12 x18*x39 - 8 x18*x42 - 16 x18*x43 - 6 x19*x32
      - 12 x19*x33 - 8 x19*x34 - 2 x19*x37 - 2 x19*x44 + 14 x19*x48 - 18 x20*x30
      - 16 x20*x33 + 18 x20*x35 + 6 x20*x36 + 2 x20*x47 + 20 x20*x49 - 4 x21*x30
      + 10 x21*x31 - 16 x21*x32 - 18 x21*x38 - 16 x21*x41 - 16 x21*x46
      + 6 x22*x25 + 18 x22*x30 - 6 x22*x36 + 10 x22*x43 - 12 x22*x48
      + 18 x23*x28 - 12 x23*x31 - 4 x23*x35 + 20 x23*x37 - 20 x23*x43
      + 2 x23*x47 + 4 x24*x26 - 4 x24*x32 + 6 x24*x35 + 20 x24*x42 - 2 x24*x44
      + 6 x25*x31 + 8 x25*x35 + 6 x25*x40 - 16 x25*x46 - 18 x26*x28 - 18 x26*x40
      + 2 x26*x49 + 20 x27*x29 - 8 x27*x32 + 8 x27*x33 - 18 x27*x44 - 14 x28*x29
      + 16 x28*x40 + 2 x28*x41 - 20 x28*x46 + 12 x29*x42 + 14 x30*x31
      - 10 x30*x36 + 6 x30*x37 + 8 x30*x47 - 20 x30*x48 + 4 x32*x33 + 8 x32*x36
      - 4 x32*x45 + 18 x32*x48 - 10 x33*x34 - 18 x33*x40 + 4 x33*x43
      + 16 x34*x36 - 8 x34*x39 + 2 x35*x37 + 18 x35*x38 - 12 x35*x40
      - 20 x35*x48 - 16 x36*x38 - 18 x36*x44 + 2 x36*x48 + 10 x37*x40
      + 10 x38*x39 + 12 x38*x41 - 18 x39*x44 - 12 x39*x46 - 10 x40*x41
      + 12 x40*x44 + 10 x41*x46 + 14 x41*x48 - 16 x42*x43 + 16 x42*x45
      + 16 x44*x46 + 18 x45*x49 + 12 x46*x47 + 2 x47*x49 + 20 x48*x49 ]/2
Subject To
 c0: - 2 x1 - 2 x7 + x11 - 2 x12 + 2 x22 - x24 - x34 - x41 - 2 x44 + x46 = -2
 c1: 2 x6 + x7 - x13 - 2 x17 + x27 - x31 - 2 x33 + x37 - x42 - x47 = 1
 c2: - x6 + x18 + x20 + 2 x23 + x30 + 2 x34 + x39 + 2 x42 - x45 - 2 x49 = 1
 c3: x4 - 2 x16 - 2 x20 + x23 - x24 - 2 x34 + 2 x40 + x42 - 2 x46 + 2 x47 = -1
 c4: - 2 x7 + 2 x9 - x11 + 2 x15 - x22 + 2 x30 + x35 - x36 + 2 x40 + 2 x42 = -2
 c5: - x1 + x2 + x4 - x21 - x27 - x28 - x29 - 2 x36 + x42 - 2 x44 = -2
 c6: - x0 + 2 x2 + 2 x6 - 2 x19 + 2 x23 + x26 + 2 x33 + 2 x34 - 2 x38 + 2 x40
      = -1
 c7: - x16 + 2 x26 + 2 x28 - 2 x29 - 2 x30 + x40 + 2 x41 - 2 x43 - x44 + x47 = 
     0
 c8: - x1 - 2 x4 - x13 + 2 x16 - x20 - 2 x23 - x27 - 2 x29 + 2 x30 + x32 = -1
 c9: x0 - 2 x1 - 2 x14 - x18 - 2 x20 + 2 x22 - 2 x24 - x25 + x26 - 2 x39 = -1

Bounds
 0 <= x0 <= 1
 0 <= x1 <= 1
 0 <= x2 <= 1
 0 <= x3 <= 1
 0 <= x4 <= 1
 0 <= x5 <= 1
 0 <= x6 <= 1
 0 <= x7 <= 1
 0 <= x8 <= 1
 0 <= x9 <= 1
 0 <= x10 <= 1
 0 <= x11 <= 1
 0 <= x12 <= 1
 0 <= x13 <= 1
 0 <= x14 <= 1
 0 <= x15 <= 1
 0 <= x16 <= 1
 0 <= x17 <= 1
 0 <= x18 <= 1
 0 <= x19 <= 1
 0 <= x20 <= 1
 0 <= x21 <= 1
 0 <= x22 <= 1
 0 <= x23 <= 1
 0 <= x24 <= 1
 0 <= x25 <= 1
 0 <= x26 <= 1
 0 <= x27 <= 1
 0 <= x28 <= 1
 0 <= x29 <= 1
 0 <= x30 <= 1
 0 <= x31 <= 1
 0 <= x32 <= 1
 0 <= x33 <= 1
 0 <= x34 <= 1
 0 <= x35 <= 1
 0 <= x36 <= 1
 0 <= x37 <= 1
 0 <= x38 <= 1
 0 <= x39 <= 1
 0 <= x40 <= 1
 0 <= x41 <= 1
 0 <= x42 <= 1
 0 <= x43 <= 1
 0 <= x44 <= 1
 0 <= x45 <= 1
 0 <= x46 <= 1
 0 <= x47 <= 1
 0 <= x48 <= 1
 0 <= x49 <= 1

Binaries
 x0 x1 x2 x3 x4 x5 x6 x7 x8 x9 x10 x11 x12 x13 x14 x15 x16 x17 x18 x19 x20 x21
 x22 x23 x24 x25 x26 x27 x28 x29 x30 x31 x32 x33 x34 x35 x36 x37 x38 x39 x40 x41
 x42 x43 x44 x45 x46 x47 x48 x49
End
